NAME          COPTPROB
OBJSENSE
  MIN
ROWS
 N  __OBJ___
 L  C41     
 L  C65     
 L  C97     
 L  C111    
 L  C141    
 L  C161    
 L  C187    
COLUMNS
    MARKER    'MARKER'                 'INTORG'
    x68       __OBJ___  458
    x68       C41       -1
    x68       C161      -1
    x164      __OBJ___  519
    x164      C97       -1
    x164      C111      -1
    x284      __OBJ___  296
    x284      C141      -1
    x284      C187      -1
    x307      __OBJ___  514
    x307      C111      -1
    x307      C187      -1
    x416      __OBJ___  242
    x416      C187      -1
    x422      __OBJ___  585
    x422      C41       -1
    x422      C141      -1
    x426      __OBJ___  494
    x426      C111      -1
    x532      __OBJ___  54
    x532      C65       -1
    x532      C97       -1
    x691      __OBJ___  230
    x691      C65       -1
    x691      C161      -1
    MARKER    'MARKER'                 'INTEND'
RHS
    RHS       __OBJ___  -17457
    RHS       C41       -1
    RHS       C65       -1
    RHS       C97       -1
    RHS       C111      -1
    RHS       C141      -1
    RHS       C161      -1
    RHS       C187      -1
BOUNDS
 UP BOUND     x68       1
 UP BOUND     x164      1
 UP BOUND     x284      1
 UP BOUND     x307      1
 UP BOUND     x416      1
 UP BOUND     x422      1
 UP BOUND     x426      1
 UP BOUND     x532      1
 UP BOUND     x691      1
ENDATA
